GLPSOL--GLPK LP/MIP Solver 5.0
Parameter(s) specified in the command line:
 --cpxlp --first new_inputs/order/dag204_tiers_input.lp -o solver_outputs/dag204_tiers_input.lp
Reading problem data from 'new_inputs/order/dag204_tiers_input.lp'...
new_inputs/order/dag204_tiers_input.lp:25263: warning: lower bound of variable 'm_8_8' redefined
new_inputs/order/dag204_tiers_input.lp:25263: warning: upper bound of variable 'm_8_8' redefined
24843 rows, 9317 columns, 72485 non-zeros
9317 integer variables, 8904 of which are binary
34511 lines were read
GLPK Integer Optimizer 5.0
24843 rows, 9317 columns, 72485 non-zeros
9317 integer variables, 8904 of which are binary
Preprocessing...
94 hidden packing inequaliti(es) were detected
1489 hidden covering inequaliti(es) were detected
4348 constraint coefficient(s) were reduced
23835 rows, 8713 columns, 69046 non-zeros
8713 integer variables, 8644 of which are binary
Scaling...
 A: min|aij| =  1.000e+00  max|aij| =  2.621e+05  ratio =  2.621e+05
GM: min|aij| =  3.455e-01  max|aij| =  2.894e+00  ratio =  8.377e+00
EQ: min|aij| =  1.209e-01  max|aij| =  1.000e+00  ratio =  8.272e+00
2N: min|aij| =  6.250e-02  max|aij| =  1.719e+00  ratio =  2.750e+01
Constructing initial basis...
Size of triangular part is 21661
Solving LP relaxation...
GLPK Simplex Optimizer 5.0
23835 rows, 8713 columns, 69046 non-zeros
      0: obj =   7.864320000e+05 inf =   9.968e+02 (622)
Perturbing LP to avoid stalling [199]...
   3232: obj =   8.351562411e+05 inf =   4.295e+02 (306) 31
   5498: obj =   9.341663272e+05 inf =   2.257e+02 (135) 22
   7591: obj =   1.049794317e+06 inf =   1.043e+02 (65) 20
   9596: obj =   1.141246606e+06 inf =   4.195e+01 (38) 20
  11556: obj =   1.194878898e+06 inf =   1.335e+01 (23) 19
  13492: obj =   1.263821808e+06 inf =   3.602e-01 (2) 19
  13651: obj =   1.272387993e+06 inf =   2.394e-06 (0) 1
* 15642: obj =   9.311359541e+05 inf =   5.220e-06 (2721) 19
* 17700: obj =   8.171425363e+05 inf =   6.828e-06 (2781) 20
* 19737: obj =   7.875315195e+05 inf =   1.056e-05 (2821) 20
Removing LP perturbation [19871]...
* 19871: obj =   7.873957647e+05 inf =   2.419e-13 (0) 1
OPTIMAL LP SOLUTION FOUND
Integer optimization begins...
Long-step dual simplex will be used
+ 19871: mip =     not found yet >=              -inf        (1; 0)
+ 22802: mip =     not found yet >=   7.873960000e+05        (7; 0)
# 28658: obj =   7.879499999e+05 inf =   0.000e+00 (5034) 35 94%
# 30434: obj =   7.879499999e+05 inf =   0.000e+00 (6500) 17 100%
# 32182: obj =   7.879499998e+05 inf =   0.000e+00 (9252) 17 100%
# 33928: obj =   7.879499997e+05 inf =   0.000e+00 (6751) 16 100%
# 35644: obj =   7.879499997e+05 inf =   0.000e+00 (8237) 17 100%
# 37366: obj =   7.879499997e+05 inf =   0.000e+00 (7028) 16 99%
# 39037: obj =   7.879499996e+05 inf =   0.000e+00 (2843) 16 99%
# 40689: obj =   7.879499997e+05 inf =   0.000e+00 (6605) 16 100%
# 42351: obj =   7.879499997e+05 inf =   0.000e+00 (7006) 16 99%
# 44022: obj =   7.879499996e+05 inf =   0.000e+00 (2945) 16 99%
# 45660: obj =   7.879499996e+05 inf =   0.000e+00 (8793) 16 100%
# 47299: obj =   7.879499995e+05 inf =   0.000e+00 (2144) 16 99%
# 47937: obj =   7.879500000e+05 inf =   0.000e+00 (1243) 6 99%
+ 47937: mip =     not found yet >=   7.873960000e+05        (13; 1)
Time used: 79.2 secs.  Memory used: 26.4 Mb.
+ 50280: mip =     not found yet >=   7.873960000e+05        (16; 1)
+ 52382: mip =     not found yet >=   7.873960000e+05        (21; 1)
# 57562: obj =   7.873959998e+05 inf =   0.000e+00 (4989) 35 94%
# 59330: obj =   7.873959997e+05 inf =   0.000e+00 (9724) 17 100%
# 61064: obj =   7.873959998e+05 inf =   0.000e+00 (6691) 16 100%
# 62815: obj =   7.873959998e+05 inf =   0.000e+00 (8718) 17 100%
# 64537: obj =   7.873959998e+05 inf =   0.000e+00 (6955) 16 100%
# 66233: obj =   7.873959997e+05 inf =   0.000e+00 (6330) 16 100%
# 67896: obj =   7.873959997e+05 inf =   0.000e+00 (7644) 16 100%
# 69578: obj =   7.873959997e+05 inf =   0.000e+00 (6896) 16 99%
# 71214: obj =   7.873959997e+05 inf =   0.000e+00 (8087) 16 100%
# 72857: obj =   7.873959997e+05 inf =   0.000e+00 (6211) 16 100%
# 74496: obj =   7.873959997e+05 inf =   0.000e+00 (8656) 16 99%
# 76144: obj =   7.873959997e+05 inf =   0.000e+00 (6822) 16 100%
# 77788: obj =   7.873959996e+05 inf =   0.000e+00 (4030) 16 100%
# 79410: obj =   7.873959996e+05 inf =   0.000e+00 (8949) 16 100%
# 81027: obj =   7.873959997e+05 inf =   0.000e+00 (2646) 16 99%
# 82657: obj =   7.873959997e+05 inf =   0.000e+00 (1993) 15 99%
# 84305: obj =   7.873959997e+05 inf =   0.000e+00 (821) 16 99%
# 84955: obj =   7.873960000e+05 inf =   0.000e+00 (0) 7 100%
+ 84955: mip =     not found yet >=   7.873960000e+05        (24; 2)
Time used: 185.4 secs.  Memory used: 29.3 Mb.
+ 87410: mip =     not found yet >=   7.873960000e+05        (28; 2)
+ 89601: mip =     not found yet >=   7.873960000e+05        (29; 2)
+ 92116: mip =     not found yet >=   7.873960000e+05        (34; 2)
+ 95414: mip =     not found yet >=   7.873960000e+05        (37; 2)
#100866: obj =   7.873960021e+05 inf =   0.000e+00 (6674) 35 94%
#102878: obj =   8.432930504e+05 inf =   0.000e+00 (6727) 18 77%
#104855: obj =   8.561579178e+05 inf =   0.000e+00 (6490) 17 85%
#106769: obj =   8.746546057e+05 inf =   0.000e+00 (8824) 17 85%
#108657: obj =   8.762163310e+05 inf =   0.000e+00 (7344) 18 83%
#110534: obj =   8.769808663e+05 inf =   0.000e+00 (9335) 18 81%
#112437: obj =   8.774872594e+05 inf =   0.000e+00 (5817) 18 78%
#114370: obj =   8.777085442e+05 inf =   0.000e+00 (1509) 19 78%
#115283: obj =   8.777517905e+05 inf =   1.794e-13 (0) 9 71%
+115283: mip =     not found yet >=   7.873960000e+05        (39; 2)
Time used: 261.9 secs.  Memory used: 29.4 Mb.
#119243: obj =   8.777520000e+05 inf =   0.000e+00 (6185) 37 94%
#121220: obj =   8.777520001e+05 inf =   0.000e+00 (8063) 18 100%
#123016: obj =   8.777520513e+05 inf =   0.000e+00 (8255) 17 78%
#124998: obj =   8.802359979e+05 inf =   0.000e+00 (6163) 18 84%
#127034: obj =   8.807900848e+05 inf =   0.000e+00 (1765) 19 86%
#129091: obj =   8.810154111e+05 inf =   0.000e+00 (4390) 20 80%
#130250: obj =   8.810493591e+05 inf =   3.547e-14 (0) 11 69%
+130250: mip =     not found yet >=   7.873960000e+05        (40; 2)
#133957: obj =   1.071207812e+06 inf =   0.000e+00 (5578) 32 79%
#136048: obj =   1.084196017e+06 inf =   0.000e+00 (6673) 17 88%
#138108: obj =   1.089099826e+06 inf =   0.000e+00 (7275) 18 91%
#140196: obj =   1.089695354e+06 inf =   0.000e+00 (8134) 19 91%
#142218: obj =   1.104784080e+06 inf =   0.000e+00 (5045) 19 88%
#144222: obj =   1.104968819e+06 inf =   0.000e+00 (2784) 19 88%
#146293: obj =   1.105057300e+06 inf =   0.000e+00 (2666) 19 89%
#148361: obj =   1.105111204e+06 inf =   0.000e+00 (952) 20 80%
#148920: obj =   1.105116420e+06 inf =   4.090e-14 (0) 5 74%
+148920: mip =     not found yet >=   7.873960000e+05        (40; 2)
Time used: 346.1 secs.  Memory used: 29.5 Mb.
#153024: obj =   1.105117000e+06 inf =   0.000e+00 (6643) 39 95%
#155033: obj =   1.105117000e+06 inf =   0.000e+00 (5049) 18 100%
#157051: obj =   1.105117000e+06 inf =   0.000e+00 (6280) 19 99%
#158640: obj =   1.105118102e+06 inf =   0.000e+00 (6705) 21 49%
#160710: obj =   1.105724772e+06 inf =   0.000e+00 (6549) 19 84%
#162840: obj =   1.105826997e+06 inf =   0.000e+00 (1538) 21 78%
#164259: obj =   1.105847592e+06 inf =   1.652e-14 (0) 13 72%
+164259: mip =     not found yet >=   7.873960000e+05        (41; 2)
#168241: obj =   1.161004355e+06 inf =   0.000e+00 (3316) 38 94%
#170136: obj =   1.161004355e+06 inf =   0.000e+00 (4368) 18 100%
#171997: obj =   1.161004355e+06 inf =   0.000e+00 (3032) 17 100%
#173808: obj =   1.161004355e+06 inf =   0.000e+00 (1959) 18 100%
#175593: obj =   1.161004355e+06 inf =   0.000e+00 (3703) 17 100%
#177324: obj =   1.165900083e+06 inf =   0.000e+00 (2603) 17 100%
#179057: obj =   1.165900083e+06 inf =   0.000e+00 (2835) 16 100%
#179659: obj =   1.168969841e+06 inf =   0.000e+00 (1406) 6 99%
+179659: mip =     not found yet >=   7.873960000e+05        (41; 3)
Time used: 426.2 secs.  Memory used: 29.7 Mb.
+182095: mip =     not found yet >=   7.873960000e+05        (44; 3)
+184323: mip =     not found yet >=   7.873960000e+05        (49; 3)
#188122: obj =   7.873959999e+05 inf =   0.000e+00 (4522) 35 94%
#189914: obj =   7.873959999e+05 inf =   0.000e+00 (7340) 18 100%
#191669: obj =   7.873959999e+05 inf =   0.000e+00 (4156) 17 100%
#193393: obj =   7.873959998e+05 inf =   0.000e+00 (2514) 16 100%
#195093: obj =   7.873959998e+05 inf =   0.000e+00 (4588) 17 100%
#196813: obj =   7.873959999e+05 inf =   0.000e+00 (4767) 17 100%
#198518: obj =   7.873959999e+05 inf =   0.000e+00 (7802) 16 100%
#199827: obj =   7.873960000e+05 inf =   0.000e+00 (3257) 13 99%
+199827: mip =     not found yet >=   7.873960000e+05        (48; 4)
+202433: mip =     not found yet >=   7.873960000e+05        (53; 4)
Time used: 487.4 secs.  Memory used: 29.8 Mb.
#206203: obj =   7.873959999e+05 inf =   0.000e+00 (7583) 35 94%
#208003: obj =   7.873959998e+05 inf =   0.000e+00 (6342) 18 100%
#209770: obj =   7.873959997e+05 inf =   0.000e+00 (5910) 16 100%
#211529: obj =   7.873959997e+05 inf =   0.000e+00 (3321) 17 100%
#213238: obj =   7.873959998e+05 inf =   0.000e+00 (7328) 17 100%
#214941: obj =   7.873959998e+05 inf =   0.000e+00 (6007) 16 100%
#216644: obj =   7.873959998e+05 inf =   0.000e+00 (5194) 17 100%
#218337: obj =   7.873959999e+05 inf =   0.000e+00 (6714) 16 100%
#220028: obj =   7.873959999e+05 inf =   0.000e+00 (5405) 17 100%
#221751: obj =   7.873960000e+05 inf =   0.000e+00 (4902) 16 100%
#221856: obj =   7.873960000e+05 inf =   0.000e+00 (966) 1 98%
+221856: mip =     not found yet >=   7.873960000e+05        (52; 5)
#226474: obj =   7.873959999e+05 inf =   0.000e+00 (5016) 36 94%
#228273: obj =   7.873959999e+05 inf =   0.000e+00 (7012) 17 100%
#230064: obj =   7.873959999e+05 inf =   0.000e+00 (8559) 17 100%
#231834: obj =   7.873959999e+05 inf =   0.000e+00 (3532) 17 100%
#233605: obj =   7.873960001e+05 inf =   0.000e+00 (5307) 17 100%
#235329: obj =   7.873960001e+05 inf =   0.000e+00 (5909) 16 100%
#237074: obj =   7.873960002e+05 inf =   0.000e+00 (8481) 17 100%
#238426: obj =   7.873960000e+05 inf =   0.000e+00 (6324) 13 99%
+238426: mip =     not found yet >=   7.873960000e+05        (52; 6)
Time used: 588.7 secs.  Memory used: 29.8 Mb.
+241382: mip =     not found yet >=   7.873960000e+05        (55; 6)
#247265: obj =   7.873960004e+05 inf =   0.000e+00 (6439) 36 94%
#249163: obj =   7.995021683e+05 inf =   0.000e+00 (7278) 16 84%
#251141: obj =   8.328347350e+05 inf =   0.000e+00 (6247) 18 84%
#252971: obj =   8.583305281e+05 inf =   0.000e+00 (7149) 16 85%
#254774: obj =   8.596237273e+05 inf =   0.000e+00 (5078) 17 84%
#256573: obj =   8.605305860e+05 inf =   0.000e+00 (4881) 18 82%
#258473: obj =   8.610556505e+05 inf =   0.000e+00 (2872) 18 80%
#260430: obj =   8.613100465e+05 inf =   0.000e+00 (2772) 18 81%
#262354: obj =   8.614301352e+05 inf =   1.180e-14 (0) 19 70%
+262354: mip =     not found yet >=   7.873960000e+05        (57; 6)
Time used: 650.7 secs.  Memory used: 29.8 Mb.
#266272: obj =   8.614310000e+05 inf =   0.000e+00 (6709) 37 94%
#268225: obj =   8.614310001e+05 inf =   0.000e+00 (8864) 18 100%
#269896: obj =   8.621258890e+05 inf =   0.000e+00 (6959) 16 67%
#271851: obj =   8.636024797e+05 inf =   0.000e+00 (7102) 19 84%
#273818: obj =   8.642888033e+05 inf =   0.000e+00 (8541) 19 83%
#275830: obj =   8.645821270e+05 inf =   0.000e+00 (2716) 19 77%
#277393: obj =   8.646662659e+05 inf =   3.206e-14 (0) 15 71%
+277393: mip =     not found yet >=   7.873960000e+05        (58; 6)
#281113: obj =   1.048283657e+06 inf =   0.000e+00 (6372) 32 77%
#283146: obj =   1.054229279e+06 inf =   0.000e+00 (6024) 18 89%
#285118: obj =   1.059026867e+06 inf =   0.000e+00 (6384) 17 88%
#287082: obj =   1.059499546e+06 inf =   0.000e+00 (3360) 19 87%
#289094: obj =   1.074359034e+06 inf =   0.000e+00 (3610) 19 86%
#291152: obj =   1.074423882e+06 inf =   0.000e+00 (692) 20 82%
#291670: obj =   1.074428163e+06 inf =   1.500e-13 (0) 5 66%
+291670: mip =     not found yet >=   7.873960000e+05        (58; 6)
Time used: 725.9 secs.  Memory used: 29.9 Mb.
#295659: obj =   1.097811352e+06 inf =   0.000e+00 (5272) 36 79%
Warning: basis matrix is ill-conditioned (cond = 6.77e+12)
#297773: obj =   1.113643396e+06 inf =   0.000e+00 (7714) 21 84%
#299450: obj =   1.113643709e+06 inf =   0.000e+00 (4553) 16 93%
#301466: obj =   1.113643709e+06 inf =   0.000e+00 (4253) 18 100%
#303284: obj =   1.113643709e+06 inf =   0.000e+00 (4749) 17 100%
#305068: obj =   1.113643709e+06 inf =   0.000e+00 (4419) 16 100%
#306782: obj =   1.113643709e+06 inf =   0.000e+00 (4599) 17 100%
#308545: obj =   1.113643709e+06 inf =   0.000e+00 (5916) 16 100%
#310286: obj =   1.113643709e+06 inf =   0.000e+00 (5543) 17 100%
#311969: obj =   1.113643709e+06 inf =   0.000e+00 (2998) 16 100%
#313624: obj =   1.116171616e+06 inf =   0.000e+00 (4731) 16 99%
#315254: obj =   1.116171616e+06 inf =   0.000e+00 (3799) 15 99%
#316888: obj =   1.116171616e+06 inf =   0.000e+00 (4515) 16 100%
#318559: obj =   1.116171616e+06 inf =   0.000e+00 (3698) 16 99%
#320238: obj =   1.116171616e+06 inf =   0.000e+00 (4659) 17 100%
#321929: obj =   1.116171616e+06 inf =   0.000e+00 (3081) 16 99%
#323610: obj =   1.116171616e+06 inf =   0.000e+00 (2151) 16 100%
#325243: obj =   1.130035001e+06 inf =   0.000e+00 (1822) 16 99%
#326835: obj =   1.138577743e+06 inf =   0.000e+00 (3030) 15 99%
#328483: obj =   1.138577743e+06 inf =   0.000e+00 (3158) 16 100%
#330137: obj =   1.138577743e+06 inf =   0.000e+00 (1994) 16 100%
#330979: obj =   1.138577744e+06 inf =   0.000e+00 (515) 9 99%
+330979: mip =     not found yet >=   7.873960000e+05        (58; 7)
Time used: 838.7 secs.  Memory used: 30.0 Mb.
#334437: obj =   9.338882175e+05 inf =   0.000e+00 (7925) 32 80%
#336364: obj =   1.015895770e+06 inf =   0.000e+00 (5076) 15 68%
#338462: obj =   1.048304725e+06 inf =   0.000e+00 (5499) 17 91%
#340509: obj =   1.067987689e+06 inf =   0.000e+00 (5686) 18 88%
#342473: obj =   1.070899856e+06 inf =   0.000e+00 (7776) 17 87%
#344362: obj =   1.085501966e+06 inf =   0.000e+00 (8012) 18 88%
#346172: obj =   1.095440273e+06 inf =   0.000e+00 (9267) 16 89%
#347938: obj =   1.108260798e+06 inf =   0.000e+00 (3177) 17 87%
#349766: obj =   1.108457349e+06 inf =   0.000e+00 (9384) 18 88%
#351652: obj =   1.108649081e+06 inf =   0.000e+00 (2109) 18 86%
#353463: obj =   1.108757495e+06 inf =   0.000e+00 (1513) 17 86%
#355267: obj =   1.118819431e+06 inf =   0.000e+00 (925) 17 82%
#356502: obj =   1.118976561e+06 inf =   1.137e-15 (0) 12 69%
+356502: mip =     not found yet >=   7.873960000e+05        (58; 7)
Time used: 906.8 secs.  Memory used: 30.0 Mb.
#360138: obj =   1.118977000e+06 inf =   0.000e+00 (5021) 35 94%
#361845: obj =   1.118977000e+06 inf =   0.000e+00 (6086) 16 100%
#363633: obj =   1.118977000e+06 inf =   0.000e+00 (6617) 16 99%
#365420: obj =   1.118977000e+06 inf =   0.000e+00 (6341) 17 100%
#367065: obj =   1.118976999e+06 inf =   0.000e+00 (6240) 16 99%
#368803: obj =   1.118977000e+06 inf =   0.000e+00 (5786) 16 100%
#370784: obj =   1.118977000e+06 inf =   0.000e+00 (4930) 18 99%
#372648: obj =   1.118977000e+06 inf =   0.000e+00 (5229) 17 100%
#374426: obj =   1.118977000e+06 inf =   0.000e+00 (5790) 16 100%
#376323: obj =   1.118977000e+06 inf =   0.000e+00 (6448) 16 100%
#378226: obj =   1.118977002e+06 inf =   0.000e+00 (7138) 17 99%
#379428: obj =   1.118977070e+06 inf =   0.000e+00 (7155) 11 28%
#380890: obj =   1.125586372e+06 inf =   0.000e+00 (6701) 17 43%
#382900: obj =   1.128467298e+06 inf =   0.000e+00 (8540) 18 88%
#384690: obj =   1.129192664e+06 inf =   0.000e+00 (8185) 16 90%
#386567: obj =   1.129661094e+06 inf =   0.000e+00 (9889) 17 90%
#388441: obj =   1.129983226e+06 inf =   0.000e+00 (10202) 17 91%
#390208: obj =   1.130676201e+06 inf =   0.000e+00 (5266) 17 92%
#392076: obj =   1.130772199e+06 inf =   0.000e+00 (5629) 17 93%
#393968: obj =   1.130829572e+06 inf =   0.000e+00 (2751) 18 94%
#395428: obj =   1.130890231e+06 inf =   1.293e-13 (8684) 14 88%
+395428: mip =     not found yet >=   7.873960000e+05        (58; 8)
Time used: 1015.9 secs.  Memory used: 30.1 Mb.
#399338: obj =   7.873960013e+05 inf =   0.000e+00 (7899) 35 94%
#401236: obj =   8.171112150e+05 inf =   0.000e+00 (7314) 16 75%
#403180: obj =   8.540314145e+05 inf =   0.000e+00 (8943) 17 88%
#405070: obj =   8.701582818e+05 inf =   0.000e+00 (7984) 16 87%
#406966: obj =   8.720641205e+05 inf =   0.000e+00 (9309) 18 85%
#408782: obj =   8.926796877e+05 inf =   0.000e+00 (5149) 17 83%
#410567: obj =   8.982976155e+05 inf =   0.000e+00 (2791) 17 83%
#412336: obj =   8.986637007e+05 inf =   0.000e+00 (4527) 17 82%
#414156: obj =   8.997458727e+05 inf =   0.000e+00 (4691) 18 81%
#415961: obj =   8.998712714e+05 inf =   0.000e+00 (1057) 17 84%
#417627: obj =   9.000396183e+05 inf =   4.803e-13 (0) 16 69%
+417627: mip =     not found yet >=   7.873960000e+05        (58; 8)
#421515: obj =   9.000400002e+05 inf =   0.000e+00 (8323) 36 94%
#423167: obj =   9.046343731e+05 inf =   0.000e+00 (7076) 14 53%
#425200: obj =   9.070292440e+05 inf =   0.000e+00 (6067) 19 86%
#427186: obj =   9.078290597e+05 inf =   0.000e+00 (5066) 18 86%
#429173: obj =   9.082596401e+05 inf =   0.000e+00 (2680) 19 84%
#431178: obj =   9.087552091e+05 inf =   0.000e+00 (1658) 20 78%
#433216: obj =   9.088485079e+05 inf =   0.000e+00 (743) 20 78%
#433983: obj =   9.088566547e+05 inf =   2.864e-15 (0) 7 68%
+433983: mip =     not found yet >=   7.873960000e+05        (59; 8)
Time used: 1117.2 secs.  Memory used: 30.1 Mb.
#437860: obj =   9.088569999e+05 inf =   0.000e+00 (7017) 36 94%
#439788: obj =   9.088569999e+05 inf =   0.000e+00 (7819) 18 100%
#441694: obj =   9.088570001e+05 inf =   0.000e+00 (6114) 18 100%
#443551: obj =   9.088570039e+05 inf =   0.000e+00 (8199) 18 86%
#445444: obj =   9.098470299e+05 inf =   0.000e+00 (9786) 18 80%
#447421: obj =   9.101584239e+05 inf =   0.000e+00 (5763) 19 85%
#449411: obj =   9.103246478e+05 inf =   0.000e+00 (7982) 19 83%
#451418: obj =   9.104384342e+05 inf =   0.000e+00 (7260) 20 75%
#452453: obj =   9.104732522e+05 inf =   1.162e-13 (0) 10 68%
+452453: mip =     not found yet >=   7.873960000e+05        (60; 8)
#456195: obj =   9.104739999e+05 inf =   0.000e+00 (5828) 35 94%
#458065: obj =   9.176942883e+05 inf =   0.000e+00 (5671) 16 83%
#460262: obj =   9.432502673e+05 inf =   0.000e+00 (5414) 20 86%
#462288: obj =   9.449676297e+05 inf =   0.000e+00 (7819) 18 85%
#464273: obj =   9.456648849e+05 inf =   0.000e+00 (7789) 19 86%
#464368: obj =   9.456837203e+05 inf =   3.970e-13 (9462) 1 84%
+464368: mip =     not found yet >=   7.873960000e+05        (60; 9)
Time used: 1195.1 secs.  Memory used: 30.2 Mb.
#468084: obj =   7.873960000e+05 inf =   0.000e+00 (6653) 35 94%
#469937: obj =   7.873960020e+05 inf =   0.000e+00 (7929) 17 99%
#471254: obj =   7.873963920e+05 inf =   0.000e+00 (7776) 12 32%
#473027: obj =   7.904866627e+05 inf =   0.000e+00 (5720) 20 67%
#475046: obj =   7.964730841e+05 inf =   0.000e+00 (7505) 17 86%
#476947: obj =   7.988877685e+05 inf =   0.000e+00 (8461) 18 83%
#478815: obj =   7.994682823e+05 inf =   0.000e+00 (5680) 17 89%
#480691: obj =   8.000208865e+05 inf =   0.000e+00 (6314) 17 87%
#482550: obj =   8.005135733e+05 inf =   0.000e+00 (6015) 17 86%
#484382: obj =   8.011305893e+05 inf =   0.000e+00 (8376) 18 85%
#486204: obj =   8.019216010e+05 inf =   0.000e+00 (2231) 17 85%
#488054: obj =   8.021137101e+05 inf =   0.000e+00 (2869) 17 84%
#489926: obj =   8.023568419e+05 inf =   0.000e+00 (9746) 18 80%
#491825: obj =   8.031394095e+05 inf =   0.000e+00 (4734) 18 79%
#493671: obj =   8.033146950e+05 inf =   0.000e+00 (2862) 18 79%
#495539: obj =   8.033439969e+05 inf =   0.000e+00 (674) 18 80%
#496067: obj =   8.033521520e+05 inf =   1.942e-14 (0) 5 68%
+496067: mip =     not found yet >=   7.873960000e+05        (60; 9)
Time used: 1281.5 secs.  Memory used: 30.2 Mb.
#499948: obj =   8.033530011e+05 inf =   0.000e+00 (5924) 36 94%
#501606: obj =   8.119373974e+05 inf =   0.000e+00 (6164) 14 52%
#503691: obj =   8.178587977e+05 inf =   0.000e+00 (8539) 17 89%
#505649: obj =   8.194132583e+05 inf =   0.000e+00 (7878) 18 87%
#507575: obj =   8.199974392e+05 inf =   0.000e+00 (5718) 18 84%
#509495: obj =   8.203545147e+05 inf =   0.000e+00 (4348) 18 90%
#511442: obj =   8.206470866e+05 inf =   0.000e+00 (5534) 19 86%
#513401: obj =   8.207702435e+05 inf =   0.000e+00 (2361) 18 83%
#515398: obj =   8.208284052e+05 inf =   0.000e+00 (3223) 20 83%
#516666: obj =   8.208640346e+05 inf =   5.551e-17 (0) 12 74%
+516666: mip =     not found yet >=   7.873960000e+05        (61; 9)
#520461: obj =   8.208650002e+05 inf =   0.000e+00 (7438) 35 94%
#521834: obj =   8.208650470e+05 inf =   0.000e+00 (7041) 13 26%
#523770: obj =   8.252472572e+05 inf =   0.000e+00 (5320) 17 73%
#525499: obj =   8.291614666e+05 inf =   0.000e+00 (7885) 15 88%
+525499: mip =     not found yet >=   7.873960000e+05        (61; 10)
Time used: 1359.1 secs.  Memory used: 30.3 Mb.
#529351: obj =   7.873960020e+05 inf =   0.000e+00 (7022) 35 94%
#531247: obj =   8.147421104e+05 inf =   0.000e+00 (5802) 16 75%
#533329: obj =   8.264527737e+05 inf =   0.000e+00 (6088) 18 86%
#535283: obj =   8.368702503e+05 inf =   0.000e+00 (7807) 17 85%
#537177: obj =   8.406761517e+05 inf =   0.000e+00 (6787) 18 84%
#539055: obj =   8.534113328e+05 inf =   0.000e+00 (6059) 18 83%
#540930: obj =   8.540459284e+05 inf =   0.000e+00 (5707) 18 82%
#542858: obj =   8.543172937e+05 inf =   0.000e+00 (1120) 18 77%
#544456: obj =   8.546517222e+05 inf =   9.745e-14 (0) 16 66%
+544456: mip =     not found yet >=   7.873960000e+05        (61; 10)
#548422: obj =   8.546520000e+05 inf =   0.000e+00 (4789) 37 94%
#550435: obj =   8.546520002e+05 inf =   0.000e+00 (8282) 19 100%
#552188: obj =   8.564580666e+05 inf =   0.000e+00 (6988) 17 66%
#554239: obj =   8.573537463e+05 inf =   0.000e+00 (2301) 19 83%
#556311: obj =   8.577675405e+05 inf =   0.000e+00 (2197) 20 80%
#558164: obj =   8.578832592e+05 inf =   6.914e-14 (0) 18 73%
+558164: mip =     not found yet >=   7.873960000e+05        (62; 10)
Time used: 1442.6 secs.  Memory used: 30.3 Mb.
#561917: obj =   1.041794861e+06 inf =   0.000e+00 (5683) 33 77%
#564030: obj =   1.048972457e+06 inf =   0.000e+00 (5764) 17 90%
#565993: obj =   1.054060924e+06 inf =   0.000e+00 (6992) 17 89%
#567928: obj =   1.054756948e+06 inf =   0.000e+00 (5704) 18 87%
#569868: obj =   1.055123899e+06 inf =   0.000e+00 (3570) 18 86%
#571810: obj =   1.069992516e+06 inf =   0.000e+00 (8151) 19 79%
#573562: obj =   1.070027774e+06 inf =   1.767e-14 (0) 17 69%
+573562: mip =     not found yet >=   7.873960000e+05        (62; 10)
#577414: obj =   1.085024802e+06 inf =   0.000e+00 (5736) 36 94%
#579301: obj =   1.085024802e+06 inf =   0.000e+00 (5439) 18 100%
#581142: obj =   1.085024802e+06 inf =   0.000e+00 (5419) 17 100%
#582928: obj =   1.085024802e+06 inf =   0.000e+00 (5725) 17 100%
#584696: obj =   1.085024802e+06 inf =   0.000e+00 (5858) 17 100%
#586466: obj =   1.085024802e+06 inf =   0.000e+00 (6124) 17 100%
#588182: obj =   1.085024802e+06 inf =   0.000e+00 (4786) 17 100%
#589904: obj =   1.085024802e+06 inf =   0.000e+00 (5405) 16 100%
#591632: obj =   1.085024802e+06 inf =   0.000e+00 (3546) 17 100%
#593344: obj =   1.085024802e+06 inf =   0.000e+00 (6245) 16 99%
#595034: obj =   1.098888187e+06 inf =   0.000e+00 (2621) 17 99%
#595408: obj =   1.102587800e+06 inf =   0.000e+00 (745) 3 99%
+595408: mip =     not found yet >=   7.873960000e+05        (62; 11)
Time used: 1543.3 secs.  Memory used: 30.4 Mb.
+597619: mip =     not found yet >=   7.873960000e+05        (63; 12)
#602391: obj =   7.876459998e+05 inf =   0.000e+00 (5799) 35 94%
#604122: obj =   7.876459997e+05 inf =   0.000e+00 (4414) 17 99%
#605824: obj =   7.876459997e+05 inf =   0.000e+00 (7543) 16 100%
#607532: obj =   7.876459997e+05 inf =   0.000e+00 (7169) 17 100%
#609169: obj =   7.876459997e+05 inf =   0.000e+00 (8183) 15 100%
#610781: obj =   7.876459998e+05 inf =   0.000e+00 (5640) 16 100%
#612394: obj =   7.876459997e+05 inf =   0.000e+00 (9390) 15 100%
#614006: obj =   7.876459997e+05 inf =   0.000e+00 (6441) 16 100%
#615600: obj =   7.876459997e+05 inf =   0.000e+00 (4301) 16 100%
#617192: obj =   7.876459997e+05 inf =   0.000e+00 (2697) 15 99%
#618805: obj =   7.876459997e+05 inf =   0.000e+00 (7871) 16 100%
#620377: obj =   7.876459996e+05 inf =   0.000e+00 (6694) 15 99%
#621921: obj =   7.876459996e+05 inf =   0.000e+00 (7351) 15 100%
#623464: obj =   7.876459997e+05 inf =   0.000e+00 (8956) 15 100%
#624994: obj =   7.876459997e+05 inf =   0.000e+00 (7354) 14 100%
#626540: obj =   7.876459998e+05 inf =   0.000e+00 (5982) 15 100%
#628071: obj =   7.876459998e+05 inf =   0.000e+00 (3474) 15 100%
#629599: obj =   7.876459998e+05 inf =   0.000e+00 (6868) 15 100%
#631124: obj =   7.876459997e+05 inf =   0.000e+00 (4899) 15 100%
#632741: obj =   7.876459997e+05 inf =   0.000e+00 (4433) 16 99%
#634319: obj =   7.876459998e+05 inf =   0.000e+00 (2235) 15 100%
#634576: obj =   7.876460000e+05 inf =   0.000e+00 (1079) 2 98%
+634576: mip =     not found yet >=   7.873960000e+05        (63; 13)
Time used: 1662.4 secs.  Memory used: 30.5 Mb.
+636675: mip =     not found yet >=   7.873960000e+05        (66; 13)
#641921: obj =   9.865347177e+05 inf =   0.000e+00 (6460) 36 94%
#643193: obj =   9.865357013e+05 inf =   0.000e+00 (6602) 12 25%
#644313: obj =   9.956546215e+05 inf =   0.000e+00 (6564) 37 1%
#645878: obj =   1.003647283e+06 inf =   0.000e+00 (5784) 13 45%
#648002: obj =   1.049038445e+06 inf =   0.000e+00 (4630) 19 99%
#650089: obj =   1.049104514e+06 inf =   0.000e+00 (3115) 18 100%
#652158: obj =   1.049104516e+06 inf =   0.000e+00 (2852) 18 99%
#653965: obj =   1.049104516e+06 inf =   0.000e+00 (2545) 17 99%
#654838: obj =   1.049104516e+06 inf =   0.000e+00 (5286) 8 99%
+654838: mip =     not found yet >=   7.873960000e+05        (67; 14)
#659919: obj =   9.191522525e+05 inf =   0.000e+00 (6608) 36 94%
#661868: obj =   9.560856772e+05 inf =   0.000e+00 (3889) 18 99%
#663855: obj =   9.560856772e+05 inf =   0.000e+00 (4098) 18 100%
#665630: obj =   9.603774240e+05 inf =   0.000e+00 (5030) 17 100%
#667321: obj =   9.603774240e+05 inf =   0.000e+00 (4540) 16 100%
